param n = 6;
param m = 4;


param f :=
1  5000000
2  2200000	
3  2200000	
4  2200000
;




param co :	1	2	3	4   :=
1	6.32	6.6 	6.72	4.36
2	6.32	6.6 	6.48	3.68
3	3.68	5.76	5.92	6.32
4	4.04	5.92	4.08	6.32
5	5.76	3.68	4.04	6.72
6	5.96	4.08	3.64	6.6
;


param p :=
1  10
2  10	
3  10	
4  10
; 


param h :=
1	500000
2	700000
3	900000
4	800000
5	1000000
6	600000
;


param ca :=
1  5000000	
2  2000000
3  2000000	
4  2000000
;

